[[53, 14, 59, 66, 11, 65, 38, 10, 58, 72, 31, 39, 9], [25, 55, 18, 50, 32, 44, 3, 40, 12, 17, 26, 67, 76, 4, 75], [68, 6, 51, 33, 63, 16, 49, 24, 23, 56, 41, 43, 42, 64], [22, 73, 62, 61, 28, 74, 2, 30, 48, 21, 47, 36, 69, 71, 60, 70], [20, 37, 15, 57, 5, 29, 45, 27, 13, 54, 52, 34, 46, 8, 19, 35, 7]]